words_hard_train/2082.qaiger
aag 125 16 0 1 109
2
4
12
14
18
22
26
30
34
48
56
68
84
100
116
132
251
6 2 4
8 3 5
10 7 9
16 13 15
20 16 19
24 20 23
28 24 27
32 28 31
36 32 35
38 10 37
40 11 36
42 39 41
44 12 14
46 45 17
50 47 49
52 46 48
54 51 53
58 56 12
60 54 58
62 61 53
64 17 18
66 65 21
70 67 69
72 66 68
74 71 73
76 63 74
78 77 73
80 21 22
82 81 25
86 83 85
88 82 84
90 87 89
92 79 90
94 93 89
96 25 26
98 97 29
102 99 101
104 98 100
106 103 105
108 95 106
110 109 105
112 29 30
114 113 33
118 115 117
120 114 116
122 119 121
124 111 122
126 125 121
128 33 34
130 129 37
134 131 133
136 130 132
138 135 137
140 127 138
142 141 137
144 43 143
146 42 142
148 145 147
150 149 5
152 54 74
154 57 13
156 152 155
158 94 107
160 159 109
162 156 160
164 110 123
166 165 125
168 166 59
170 78 91
172 171 93
174 168 172
176 126 139
178 177 141
180 174 178
182 162 180
184 182 148
186 151 185
188 55 59
190 189 61
192 191 14
194 58 49
196 193 195
198 197 18
200 62 75
202 201 77
204 199 202
206 196 19
208 205 207
210 172 23
212 208 211
214 173 22
216 213 215
218 161 26
220 216 219
222 160 27
224 221 223
226 167 30
228 225 227
230 166 31
232 229 231
234 179 34
236 233 235
238 148 4
240 237 239
242 178 35
244 240 243
246 187 245
248 244 185
250 247 249
i0 2 y1[7]
i1 1 x1[7]
i2 1 x1[0]
i3 1 x1[1]
i4 1 x1[2]
i5 1 x1[3]
i6 1 x1[4]
i7 1 x1[5]
i8 1 x1[6]
i9 2 y1[1]
i10 2 y1[0]
i11 2 y1[2]
i12 2 y1[3]
i13 2 y1[4]
i14 2 y1[5]
i15 2 y1[6]
o0 bv[0]
c
simplified
  <=
    add
      abs
        1
      subtract
        2 y1
        1 x1
    1 x1
