words_hard_train/2082.qaiger.qdimacs
p cnf 125 328
a 2 6 7 9 11 13 15 17 0
e 1 3 4 5 8 10 12 14 16 18 19 20 21 22 23 24 25 26 27 28 29 30 31 32 33 34 35 36 37 38 39 40 41 42 43 44 45 46 47 48 49 50 51 52 53 54 55 56 57 58 59 60 61 62 63 64 65 66 67 68 69 70 71 72 73 74 75 76 77 78 79 80 81 82 83 84 85 86 87 88 89 90 91 92 93 94 95 96 97 98 99 100 101 102 103 104 105 106 107 108 109 110 111 112 113 114 115 116 117 118 119 120 121 122 123 124 125 0
-1 -2 3 0
1 -3 0
2 -3 0
1 2 4 0
-1 -4 0
-2 -4 0
3 4 5 0
-3 -5 0
-4 -5 0
6 7 8 0
-6 -8 0
-7 -8 0
-8 9 10 0
8 -10 0
-9 -10 0
-10 11 12 0
10 -12 0
-11 -12 0
-12 13 14 0
12 -14 0
-13 -14 0
-14 15 16 0
14 -16 0
-15 -16 0
-16 17 18 0
16 -18 0
-17 -18 0
-5 18 19 0
5 -19 0
-18 -19 0
5 -18 20 0
-5 -20 0
18 -20 0
19 20 21 0
-19 -21 0
-20 -21 0
-6 -7 22 0
6 -22 0
7 -22 0
22 8 23 0
-22 -23 0
-8 -23 0
23 24 25 0
-23 -25 0
-24 -25 0
-23 -24 26 0
23 -26 0
24 -26 0
25 26 27 0
-25 -27 0
-26 -27 0
-28 -6 29 0
28 -29 0
6 -29 0
-27 -29 30 0
27 -30 0
29 -30 0
30 26 31 0
-30 -31 0
-26 -31 0
8 -9 32 0
-8 -32 0
9 -32 0
32 10 33 0
-32 -33 0
-10 -33 0
33 34 35 0
-33 -35 0
-34 -35 0
-33 -34 36 0
33 -36 0
34 -36 0
35 36 37 0
-35 -37 0
-36 -37 0
31 -37 38 0
-31 -38 0
37 -38 0
38 36 39 0
-38 -39 0
-36 -39 0
10 -11 40 0
-10 -40 0
11 -40 0
40 12 41 0
-40 -41 0
-12 -41 0
41 42 43 0
-41 -43 0
-42 -43 0
-41 -42 44 0
41 -44 0
42 -44 0
43 44 45 0
-43 -45 0
-44 -45 0
39 -45 46 0
-39 -46 0
45 -46 0
46 44 47 0
-46 -47 0
-44 -47 0
12 -13 48 0
-12 -48 0
13 -48 0
48 14 49 0
-48 -49 0
-14 -49 0
49 50 51 0
-49 -51 0
-50 -51 0
-49 -50 52 0
49 -52 0
50 -52 0
51 52 53 0
-51 -53 0
-52 -53 0
47 -53 54 0
-47 -54 0
53 -54 0
54 52 55 0
-54 -55 0
-52 -55 0
14 -15 56 0
-14 -56 0
15 -56 0
56 16 57 0
-56 -57 0
-16 -57 0
57 58 59 0
-57 -59 0
-58 -59 0
-57 -58 60 0
57 -60 0
58 -60 0
59 60 61 0
-59 -61 0
-60 -61 0
55 -61 62 0
-55 -62 0
61 -62 0
62 60 63 0
-62 -63 0
-60 -63 0
16 -17 64 0
-16 -64 0
17 -64 0
64 18 65 0
-64 -65 0
-18 -65 0
65 66 67 0
-65 -67 0
-66 -67 0
-65 -66 68 0
65 -68 0
66 -68 0
67 68 69 0
-67 -69 0
-68 -69 0
63 -69 70 0
-63 -70 0
69 -70 0
70 68 71 0
-70 -71 0
-68 -71 0
21 71 72 0
-21 -72 0
-71 -72 0
-21 -71 73 0
21 -73 0
71 -73 0
72 73 74 0
-72 -74 0
-73 -74 0
74 2 75 0
-74 -75 0
-2 -75 0
-27 -37 76 0
27 -76 0
37 -76 0
28 6 77 0
-28 -77 0
-6 -77 0
-76 77 78 0
76 -78 0
-77 -78 0
-47 53 79 0
47 -79 0
-53 -79 0
79 54 80 0
-79 -80 0
-54 -80 0
-78 -80 81 0
78 -81 0
80 -81 0
-55 61 82 0
55 -82 0
-61 -82 0
82 62 83 0
-82 -83 0
-62 -83 0
-83 29 84 0
83 -84 0
-29 -84 0
-39 45 85 0
39 -85 0
-45 -85 0
85 46 86 0
-85 -86 0
-46 -86 0
-84 -86 87 0
84 -87 0
86 -87 0
-63 69 88 0
63 -88 0
-69 -88 0
88 70 89 0
-88 -89 0
-70 -89 0
-87 -89 90 0
87 -90 0
89 -90 0
-81 -90 91 0
81 -91 0
90 -91 0
-91 -74 92 0
91 -92 0
74 -92 0
75 92 93 0
-75 -93 0
-92 -93 0
27 29 94 0
-27 -94 0
-29 -94 0
94 30 95 0
-94 -95 0
-30 -95 0
95 -7 96 0
-95 -96 0
7 -96 0
-29 24 97 0
29 -97 0
-24 -97 0
96 97 98 0
-96 -98 0
-97 -98 0
98 -9 99 0
-98 -99 0
9 -99 0
-31 37 100 0
31 -100 0
-37 -100 0
100 38 101 0
-100 -101 0
-38 -101 0
99 -101 102 0
-99 -102 0
101 -102 0
-98 9 103 0
98 -103 0
-9 -103 0
102 103 104 0
-102 -104 0
-103 -104 0
-86 11 105 0
86 -105 0
-11 -105 0
-104 105 106 0
104 -106 0
-105 -106 0
86 -11 107 0
-86 -107 0
11 -107 0
106 107 108 0
-106 -108 0
-107 -108 0
80 -13 109 0
-80 -109 0
13 -109 0
-108 109 110 0
108 -110 0
-109 -110 0
-80 13 111 0
80 -111 0
-13 -111 0
110 111 112 0
-110 -112 0
-111 -112 0
83 -15 113 0
-83 -113 0
15 -113 0
112 113 114 0
-112 -114 0
-113 -114 0
-83 15 115 0
83 -115 0
-15 -115 0
114 115 116 0
-114 -116 0
-115 -116 0
89 -17 117 0
-89 -117 0
17 -117 0
116 117 118 0
-116 -118 0
-117 -118 0
-74 -2 119 0
74 -119 0
2 -119 0
118 119 120 0
-118 -120 0
-119 -120 0
-89 17 121 0
89 -121 0
-17 -121 0
-120 121 122 0
120 -122 0
-121 -122 0
93 122 123 0
-93 -123 0
-122 -123 0
-122 92 124 0
122 -124 0
-92 -124 0
123 124 125 0
-123 -125 0
-124 -125 0
-125 0
